20	2	3
9	8	45	25	43	
0	0	0	7	6	3	8	10	9	9	2	3	4	5	8	9	12	14	19
19	2	3	5	1	6	6	5	4	2	16	15
1038	2	3	3	4	7	6	1	9	3	7	17	6
1075	3	3	10	5	10	5	4	7	3	18	6	17
15	3	3	1	10	2	7	2	9	3	15	11	10
11	3	2	6	9	4	8	6	4	1	20
835	3	3	7	10	5	2	6	9	1	16
9	3	3	6	9	3	2	5	3	1	20
7	3	3	10	4	8	10	9	1	1	17
255	2	2	7	9	10	8	5	2	1	13
299	2	2	6	1	10	10	9	6	1	20
8	3	3	4	5	6	8	7	1	1	20
792	3	3	7	2	10	9	4	4	1	20
555	3	3	2	3	7	9	3	5	1	20
15	2	2	9	9	4	8	7	8	1	20
16	3	3	10	2	9	10	2	7	1	18
6	3	3	5	5	1	10	2	8	1	20
1054	2	2	1	8	9	10	7	2	1	20
12	2	2	3	8	5	10	6	8	1	20
0	0	0	5	4	6	8	2	2	0
